# SADDLE/wB97XD/Def2SVP

0 1
 Pd                -0.09096600   -0.20670800   -0.01660800
 P                 -2.34542700   -0.95931500    0.09824100
 Cl                -2.92051600   -1.36678000    1.56015900
 Cl                -3.10219900   -2.08688900   -0.78081700
 P                 -1.07489800    1.96189000   -0.06219800
 Cl                -1.22285500    2.65271100   -1.52692700
 Cl                -0.76744900    3.30197600    0.80011600
 C                 -3.45012800    0.48044100   -0.26094500
 H                 -3.51480300    0.55844400   -1.35348300
 H                 -4.45656200    0.27285300    0.11827300
 C                 -2.87280600    1.77747300    0.34529200
 H                 -2.94342300    1.75980100    1.44011300
 H                 -3.41526300    2.66095600   -0.00833100
 C                  2.00535600   -0.00860300    0.00749500
 C                  2.56224000    0.20576800    1.27401300
 H                  2.11755800   -0.24460100    2.15633800
 C                  3.70700400    1.00159600    1.39494800
 H                  4.13211300    1.18010100    2.37888000
 C                  4.30670000    1.55296700    0.25947500
 C                  3.76481100    1.29889300   -1.00634500
 H                  4.23445800    1.71460600   -1.89370900
 C                  2.62362000    0.50519000   -1.14097200
 H                  2.22089900    0.29388800   -2.12690900
 C                  1.39170900   -1.96328300   -0.17460400
 H                  5.20078500    2.16174200    0.35636700
 F                  1.08902000   -2.57661300    1.00586000
 F                  0.66497600   -2.57700700   -1.16869400
 F                  2.66819700   -2.34634400   -0.44907200
Options
@@SubAddExPot@@
GauProc=32
GauMem=1600
MinFreqValue=50.0
EigenCheck


